p cnf 556 1338
1 0
15 16 0
-15 -16 0
17 18 0
-17 -18 0
-14 15 0
-14 17 0
14 -15 -17 0
19 20 0
-19 -20 0
-13 14 0
-13 19 0
13 -14 -19 0
-22 14 0
22 -14 0
23 -20 0
-23 20 0
-21 22 0
-21 23 0
21 -22 -23 0
12 -13 0
12 -21 0
-12 13 21 0
26 16 0
-26 -16 0
27 -18 0
-27 18 0
-25 26 0
-25 27 0
25 -26 -27 0
28 20 0
-28 -20 0
-24 25 0
-24 28 0
24 -25 -28 0
11 -12 0
11 -24 0
-11 12 24 0
31 -16 0
-31 16 0
32 18 0
-32 -18 0
-30 31 0
-30 32 0
30 -31 -32 0
33 20 0
-33 -20 0
-29 30 0
-29 33 0
29 -30 -33 0
10 -11 0
10 -29 0
-10 11 29 0
-35 25 0
35 -25 0
36 -20 0
-36 20 0
-34 35 0
-34 36 0
34 -35 -36 0
-9 10 0
-9 34 0
9 -10 -34 0
44 45 0
-44 -45 0
46 47 0
-46 -47 0
-43 44 0
-43 46 0
43 -44 -46 0
48 49 0
-48 -49 0
-42 43 0
-42 48 0
42 -43 -48 0
-51 43 0
51 -43 0
52 -49 0
-52 49 0
-50 51 0
-50 52 0
50 -51 -52 0
41 -42 0
41 -50 0
-41 42 50 0
55 45 0
-55 -45 0
56 -47 0
-56 47 0
-54 55 0
-54 56 0
54 -55 -56 0
57 49 0
-57 -49 0
-53 54 0
-53 57 0
53 -54 -57 0
40 -41 0
40 -53 0
-40 41 53 0
60 -45 0
-60 45 0
61 47 0
-61 -47 0
-59 60 0
-59 61 0
59 -60 -61 0
62 49 0
-62 -49 0
-58 59 0
-58 62 0
58 -59 -62 0
39 -40 0
39 -58 0
-39 40 58 0
-64 54 0
64 -54 0
65 -49 0
-65 49 0
-63 64 0
-63 65 0
63 -64 -65 0
-38 39 0
-38 63 0
38 -39 -63 0
-66 34 0
66 -34 0
-37 38 0
-37 66 0
37 -38 -66 0
8 -9 0
8 -37 0
-8 9 37 0
74 75 0
-74 -75 0
76 77 0
-76 -77 0
-73 74 0
-73 76 0
73 -74 -76 0
78 79 0
-78 -79 0
-72 73 0
-72 78 0
72 -73 -78 0
-81 73 0
81 -73 0
82 -79 0
-82 79 0
-80 81 0
-80 82 0
80 -81 -82 0
71 -72 0
71 -80 0
-71 72 80 0
85 75 0
-85 -75 0
86 -77 0
-86 77 0
-84 85 0
-84 86 0
84 -85 -86 0
87 79 0
-87 -79 0
-83 84 0
-83 87 0
83 -84 -87 0
70 -71 0
70 -83 0
-70 71 83 0
90 -75 0
-90 75 0
91 77 0
-91 -77 0
-89 90 0
-89 91 0
89 -90 -91 0
92 79 0
-92 -79 0
-88 89 0
-88 92 0
88 -89 -92 0
69 -70 0
69 -88 0
-69 70 88 0
-94 84 0
94 -84 0
95 -79 0
-95 79 0
-93 94 0
-93 95 0
93 -94 -95 0
-68 69 0
-68 93 0
68 -69 -93 0
-97 34 0
97 -34 0
-98 63 0
98 -63 0
-96 97 0
-96 98 0
96 -97 -98 0
-67 68 0
-67 96 0
67 -68 -96 0
7 -8 0
7 -67 0
-7 8 67 0
106 107 0
-106 -107 0
108 109 0
-108 -109 0
-105 106 0
-105 108 0
105 -106 -108 0
110 111 0
-110 -111 0
-104 105 0
-104 110 0
104 -105 -110 0
-113 105 0
113 -105 0
114 -111 0
-114 111 0
-112 113 0
-112 114 0
112 -113 -114 0
103 -104 0
103 -112 0
-103 104 112 0
117 107 0
-117 -107 0
118 -109 0
-118 109 0
-116 117 0
-116 118 0
116 -117 -118 0
119 111 0
-119 -111 0
-115 116 0
-115 119 0
115 -116 -119 0
102 -103 0
102 -115 0
-102 103 115 0
122 -107 0
-122 107 0
123 109 0
-123 -109 0
-121 122 0
-121 123 0
121 -122 -123 0
124 111 0
-124 -111 0
-120 121 0
-120 124 0
120 -121 -124 0
101 -102 0
101 -120 0
-101 102 120 0
-126 116 0
126 -116 0
127 -111 0
-127 111 0
-125 126 0
-125 127 0
125 -126 -127 0
-100 101 0
-100 125 0
100 -101 -125 0
-129 96 0
129 -96 0
-130 93 0
130 -93 0
-128 129 0
-128 130 0
128 -129 -130 0
-99 100 0
-99 128 0
99 -100 -128 0
6 -7 0
6 -99 0
-6 7 99 0
138 139 0
-138 -139 0
140 141 0
-140 -141 0
-137 138 0
-137 140 0
137 -138 -140 0
142 143 0
-142 -143 0
-136 137 0
-136 142 0
136 -137 -142 0
-145 137 0
145 -137 0
146 -143 0
-146 143 0
-144 145 0
-144 146 0
144 -145 -146 0
135 -136 0
135 -144 0
-135 136 144 0
149 139 0
-149 -139 0
150 -141 0
-150 141 0
-148 149 0
-148 150 0
148 -149 -150 0
151 143 0
-151 -143 0
-147 148 0
-147 151 0
147 -148 -151 0
134 -135 0
134 -147 0
-134 135 147 0
154 -139 0
-154 139 0
155 141 0
-155 -141 0
-153 154 0
-153 155 0
153 -154 -155 0
156 143 0
-156 -143 0
-152 153 0
-152 156 0
152 -153 -156 0
133 -134 0
133 -152 0
-133 134 152 0
-158 148 0
158 -148 0
159 -143 0
-159 143 0
-157 158 0
-157 159 0
157 -158 -159 0
-132 133 0
-132 157 0
132 -133 -157 0
-161 128 0
161 -128 0
-162 125 0
162 -125 0
-160 161 0
-160 162 0
160 -161 -162 0
-131 132 0
-131 160 0
131 -132 -160 0
5 -6 0
5 -131 0
-5 6 131 0
170 171 0
-170 -171 0
172 173 0
-172 -173 0
-169 170 0
-169 172 0
169 -170 -172 0
174 175 0
-174 -175 0
-168 169 0
-168 174 0
168 -169 -174 0
-177 169 0
177 -169 0
178 -175 0
-178 175 0
-176 177 0
-176 178 0
176 -177 -178 0
167 -168 0
167 -176 0
-167 168 176 0
181 171 0
-181 -171 0
182 -173 0
-182 173 0
-180 181 0
-180 182 0
180 -181 -182 0
183 175 0
-183 -175 0
-179 180 0
-179 183 0
179 -180 -183 0
166 -167 0
166 -179 0
-166 167 179 0
186 -171 0
-186 171 0
187 173 0
-187 -173 0
-185 186 0
-185 187 0
185 -186 -187 0
188 175 0
-188 -175 0
-184 185 0
-184 188 0
184 -185 -188 0
165 -166 0
165 -184 0
-165 166 184 0
-190 180 0
190 -180 0
191 -175 0
-191 175 0
-189 190 0
-189 191 0
189 -190 -191 0
-164 165 0
-164 189 0
164 -165 -189 0
-193 160 0
193 -160 0
-194 157 0
194 -157 0
-192 193 0
-192 194 0
192 -193 -194 0
-163 164 0
-163 192 0
163 -164 -192 0
4 -5 0
4 -163 0
-4 5 163 0
202 203 0
-202 -203 0
204 205 0
-204 -205 0
-201 202 0
-201 204 0
201 -202 -204 0
206 207 0
-206 -207 0
-200 201 0
-200 206 0
200 -201 -206 0
-209 201 0
209 -201 0
210 -207 0
-210 207 0
-208 209 0
-208 210 0
208 -209 -210 0
199 -200 0
199 -208 0
-199 200 208 0
213 203 0
-213 -203 0
214 -205 0
-214 205 0
-212 213 0
-212 214 0
212 -213 -214 0
215 207 0
-215 -207 0
-211 212 0
-211 215 0
211 -212 -215 0
198 -199 0
198 -211 0
-198 199 211 0
218 -203 0
-218 203 0
219 205 0
-219 -205 0
-217 218 0
-217 219 0
217 -218 -219 0
220 207 0
-220 -207 0
-216 217 0
-216 220 0
216 -217 -220 0
197 -198 0
197 -216 0
-197 198 216 0
-222 212 0
222 -212 0
223 -207 0
-223 207 0
-221 222 0
-221 223 0
221 -222 -223 0
-196 197 0
-196 221 0
196 -197 -221 0
-225 192 0
225 -192 0
-226 189 0
226 -189 0
-224 225 0
-224 226 0
224 -225 -226 0
-195 196 0
-195 224 0
195 -196 -224 0
3 -4 0
3 -195 0
-3 4 195 0
-236 224 0
236 -224 0
-237 221 0
237 -221 0
-235 236 0
-235 237 0
235 -236 -237 0
-238 3 0
238 -3 0
234 -235 0
234 -238 0
-234 235 238 0
-245 216 0
245 -216 0
-246 21 0
246 -21 0
-244 245 0
-244 246 0
244 -245 -246 0
-248 221 0
248 -221 0
-249 29 0
249 -29 0
-247 248 0
-247 249 0
247 -248 -249 0
243 -244 0
243 -247 0
-243 244 247 0
-251 211 0
251 -211 0
-252 34 0
252 -34 0
-250 251 0
-250 252 0
250 -251 -252 0
242 -243 0
242 -250 0
-242 243 250 0
-254 208 0
254 -208 0
-255 24 0
255 -24 0
-253 254 0
-253 255 0
253 -254 -255 0
241 -242 0
241 -253 0
-241 242 253 0
-257 211 0
257 -211 0
-258 29 0
258 -29 0
-256 257 0
-256 258 0
256 -257 -258 0
240 -241 0
240 -256 0
-240 241 256 0
-260 200 0
260 -200 0
-261 21 0
261 -21 0
-259 260 0
-259 261 0
259 -260 -261 0
239 -240 0
239 -259 0
-239 240 259 0
-233 234 0
-233 239 0
233 -234 -239 0
-263 234 0
263 -234 0
-270 216 0
270 -216 0
-271 50 0
271 -50 0
-269 270 0
-269 271 0
269 -270 -271 0
-273 221 0
273 -221 0
-274 58 0
274 -58 0
-272 273 0
-272 274 0
272 -273 -274 0
268 -269 0
268 -272 0
-268 269 272 0
-276 211 0
276 -211 0
-277 63 0
277 -63 0
-275 276 0
-275 277 0
275 -276 -277 0
267 -268 0
267 -275 0
-267 268 275 0
-279 208 0
279 -208 0
-280 53 0
280 -53 0
-278 279 0
-278 280 0
278 -279 -280 0
266 -267 0
266 -278 0
-266 267 278 0
-282 211 0
282 -211 0
-283 58 0
283 -58 0
-281 282 0
-281 283 0
281 -282 -283 0
265 -266 0
265 -281 0
-265 266 281 0
-285 200 0
285 -200 0
-286 50 0
286 -50 0
-284 285 0
-284 286 0
284 -285 -286 0
264 -265 0
264 -284 0
-264 265 284 0
-262 263 0
-262 264 0
262 -263 -264 0
232 -233 0
232 -262 0
-232 233 262 0
-288 234 0
288 -234 0
-295 216 0
295 -216 0
-296 80 0
296 -80 0
-294 295 0
-294 296 0
294 -295 -296 0
-298 221 0
298 -221 0
-299 88 0
299 -88 0
-297 298 0
-297 299 0
297 -298 -299 0
293 -294 0
293 -297 0
-293 294 297 0
-301 211 0
301 -211 0
-302 93 0
302 -93 0
-300 301 0
-300 302 0
300 -301 -302 0
292 -293 0
292 -300 0
-292 293 300 0
-304 208 0
304 -208 0
-305 83 0
305 -83 0
-303 304 0
-303 305 0
303 -304 -305 0
291 -292 0
291 -303 0
-291 292 303 0
-307 211 0
307 -211 0
-308 88 0
308 -88 0
-306 307 0
-306 308 0
306 -307 -308 0
290 -291 0
290 -306 0
-290 291 306 0
-310 200 0
310 -200 0
-311 80 0
311 -80 0
-309 310 0
-309 311 0
309 -310 -311 0
289 -290 0
289 -309 0
-289 290 309 0
-287 288 0
-287 289 0
287 -288 -289 0
231 -232 0
231 -287 0
-231 232 287 0
-313 234 0
313 -234 0
-320 216 0
320 -216 0
-321 112 0
321 -112 0
-319 320 0
-319 321 0
319 -320 -321 0
-323 221 0
323 -221 0
-324 120 0
324 -120 0
-322 323 0
-322 324 0
322 -323 -324 0
318 -319 0
318 -322 0
-318 319 322 0
-326 211 0
326 -211 0
-327 125 0
327 -125 0
-325 326 0
-325 327 0
325 -326 -327 0
317 -318 0
317 -325 0
-317 318 325 0
-329 208 0
329 -208 0
-330 115 0
330 -115 0
-328 329 0
-328 330 0
328 -329 -330 0
316 -317 0
316 -328 0
-316 317 328 0
-332 211 0
332 -211 0
-333 120 0
333 -120 0
-331 332 0
-331 333 0
331 -332 -333 0
315 -316 0
315 -331 0
-315 316 331 0
-335 200 0
335 -200 0
-336 112 0
336 -112 0
-334 335 0
-334 336 0
334 -335 -336 0
314 -315 0
314 -334 0
-314 315 334 0
-312 313 0
-312 314 0
312 -313 -314 0
230 -231 0
230 -312 0
-230 231 312 0
-338 234 0
338 -234 0
-345 216 0
345 -216 0
-346 144 0
346 -144 0
-344 345 0
-344 346 0
344 -345 -346 0
-348 221 0
348 -221 0
-349 152 0
349 -152 0
-347 348 0
-347 349 0
347 -348 -349 0
343 -344 0
343 -347 0
-343 344 347 0
-351 211 0
351 -211 0
-352 157 0
352 -157 0
-350 351 0
-350 352 0
350 -351 -352 0
342 -343 0
342 -350 0
-342 343 350 0
-354 208 0
354 -208 0
-355 147 0
355 -147 0
-353 354 0
-353 355 0
353 -354 -355 0
341 -342 0
341 -353 0
-341 342 353 0
-357 211 0
357 -211 0
-358 152 0
358 -152 0
-356 357 0
-356 358 0
356 -357 -358 0
340 -341 0
340 -356 0
-340 341 356 0
-360 200 0
360 -200 0
-361 144 0
361 -144 0
-359 360 0
-359 361 0
359 -360 -361 0
339 -340 0
339 -359 0
-339 340 359 0
-337 338 0
-337 339 0
337 -338 -339 0
229 -230 0
229 -337 0
-229 230 337 0
-363 234 0
363 -234 0
-370 216 0
370 -216 0
-371 176 0
371 -176 0
-369 370 0
-369 371 0
369 -370 -371 0
-373 221 0
373 -221 0
-374 184 0
374 -184 0
-372 373 0
-372 374 0
372 -373 -374 0
368 -369 0
368 -372 0
-368 369 372 0
-376 211 0
376 -211 0
-377 189 0
377 -189 0
-375 376 0
-375 377 0
375 -376 -377 0
367 -368 0
367 -375 0
-367 368 375 0
-379 208 0
379 -208 0
-380 179 0
380 -179 0
-378 379 0
-378 380 0
378 -379 -380 0
366 -367 0
366 -378 0
-366 367 378 0
-382 211 0
382 -211 0
-383 184 0
383 -184 0
-381 382 0
-381 383 0
381 -382 -383 0
365 -366 0
365 -381 0
-365 366 381 0
-385 200 0
385 -200 0
-386 176 0
386 -176 0
-384 385 0
-384 386 0
384 -385 -386 0
364 -365 0
364 -384 0
-364 365 384 0
-362 363 0
-362 364 0
362 -363 -364 0
228 -229 0
228 -362 0
-228 229 362 0
-388 234 0
388 -234 0
-395 216 0
395 -216 0
-396 208 0
396 -208 0
-394 395 0
-394 396 0
394 -395 -396 0
-398 221 0
398 -221 0
-399 216 0
399 -216 0
-397 398 0
-397 399 0
397 -398 -399 0
393 -394 0
393 -397 0
-393 394 397 0
-401 211 0
401 -211 0
-402 221 0
402 -221 0
-400 401 0
-400 402 0
400 -401 -402 0
392 -393 0
392 -400 0
-392 393 400 0
-404 208 0
404 -208 0
-405 211 0
405 -211 0
-403 404 0
-403 405 0
403 -404 -405 0
391 -392 0
391 -403 0
-391 392 403 0
-407 211 0
407 -211 0
-408 216 0
408 -216 0
-406 407 0
-406 408 0
406 -407 -408 0
390 -391 0
390 -406 0
-390 391 406 0
-410 200 0
410 -200 0
-411 208 0
411 -208 0
-409 410 0
-409 411 0
409 -410 -411 0
389 -390 0
389 -409 0
-389 390 409 0
-387 388 0
-387 389 0
387 -388 -389 0
227 -228 0
227 -387 0
-227 228 387 0
2 -3 0
2 -227 0
-2 3 227 0
-424 29 0
424 -29 0
-425 50 0
425 -50 0
-423 424 0
-423 425 0
423 -424 -425 0
-427 34 0
427 -34 0
-428 58 0
428 -58 0
-426 427 0
-426 428 0
426 -427 -428 0
422 -423 0
422 -426 0
-422 423 426 0
-430 24 0
430 -24 0
-431 63 0
431 -63 0
-429 430 0
-429 431 0
429 -430 -431 0
421 -422 0
421 -429 0
-421 422 429 0
-433 21 0
433 -21 0
-434 53 0
434 -53 0
-432 433 0
-432 434 0
432 -433 -434 0
420 -421 0
420 -432 0
-420 421 432 0
-436 24 0
436 -24 0
-437 58 0
437 -58 0
-435 436 0
-435 437 0
435 -436 -437 0
419 -420 0
419 -435 0
-419 420 435 0
-439 13 0
439 -13 0
-440 50 0
440 -50 0
-438 439 0
-438 440 0
438 -439 -440 0
418 -419 0
418 -438 0
-418 419 438 0
-447 58 0
447 -58 0
-448 80 0
448 -80 0
-446 447 0
-446 448 0
446 -447 -448 0
-450 63 0
450 -63 0
-451 88 0
451 -88 0
-449 450 0
-449 451 0
449 -450 -451 0
445 -446 0
445 -449 0
-445 446 449 0
-453 53 0
453 -53 0
-454 93 0
454 -93 0
-452 453 0
-452 454 0
452 -453 -454 0
444 -445 0
444 -452 0
-444 445 452 0
-456 50 0
456 -50 0
-457 83 0
457 -83 0
-455 456 0
-455 457 0
455 -456 -457 0
443 -444 0
443 -455 0
-443 444 455 0
-459 53 0
459 -53 0
-460 88 0
460 -88 0
-458 459 0
-458 460 0
458 -459 -460 0
442 -443 0
442 -458 0
-442 443 458 0
-462 42 0
462 -42 0
-463 80 0
463 -80 0
-461 462 0
-461 463 0
461 -462 -463 0
441 -442 0
441 -461 0
-441 442 461 0
-417 418 0
-417 441 0
417 -418 -441 0
-470 88 0
470 -88 0
-471 112 0
471 -112 0
-469 470 0
-469 471 0
469 -470 -471 0
-473 93 0
473 -93 0
-474 120 0
474 -120 0
-472 473 0
-472 474 0
472 -473 -474 0
468 -469 0
468 -472 0
-468 469 472 0
-476 83 0
476 -83 0
-477 125 0
477 -125 0
-475 476 0
-475 477 0
475 -476 -477 0
467 -468 0
467 -475 0
-467 468 475 0
-479 80 0
479 -80 0
-480 115 0
480 -115 0
-478 479 0
-478 480 0
478 -479 -480 0
466 -467 0
466 -478 0
-466 467 478 0
-482 83 0
482 -83 0
-483 120 0
483 -120 0
-481 482 0
-481 483 0
481 -482 -483 0
465 -466 0
465 -481 0
-465 466 481 0
-485 72 0
485 -72 0
-486 112 0
486 -112 0
-484 485 0
-484 486 0
484 -485 -486 0
464 -465 0
464 -484 0
-464 465 484 0
-416 417 0
-416 464 0
416 -417 -464 0
-493 120 0
493 -120 0
-494 144 0
494 -144 0
-492 493 0
-492 494 0
492 -493 -494 0
-496 125 0
496 -125 0
-497 152 0
497 -152 0
-495 496 0
-495 497 0
495 -496 -497 0
491 -492 0
491 -495 0
-491 492 495 0
-499 115 0
499 -115 0
-500 157 0
500 -157 0
-498 499 0
-498 500 0
498 -499 -500 0
490 -491 0
490 -498 0
-490 491 498 0
-502 112 0
502 -112 0
-503 147 0
503 -147 0
-501 502 0
-501 503 0
501 -502 -503 0
489 -490 0
489 -501 0
-489 490 501 0
-505 115 0
505 -115 0
-506 152 0
506 -152 0
-504 505 0
-504 506 0
504 -505 -506 0
488 -489 0
488 -504 0
-488 489 504 0
-508 104 0
508 -104 0
-509 144 0
509 -144 0
-507 508 0
-507 509 0
507 -508 -509 0
487 -488 0
487 -507 0
-487 488 507 0
-415 416 0
-415 487 0
415 -416 -487 0
-516 152 0
516 -152 0
-517 176 0
517 -176 0
-515 516 0
-515 517 0
515 -516 -517 0
-519 157 0
519 -157 0
-520 184 0
520 -184 0
-518 519 0
-518 520 0
518 -519 -520 0
514 -515 0
514 -518 0
-514 515 518 0
-522 147 0
522 -147 0
-523 189 0
523 -189 0
-521 522 0
-521 523 0
521 -522 -523 0
513 -514 0
513 -521 0
-513 514 521 0
-525 144 0
525 -144 0
-526 179 0
526 -179 0
-524 525 0
-524 526 0
524 -525 -526 0
512 -513 0
512 -524 0
-512 513 524 0
-528 147 0
528 -147 0
-529 184 0
529 -184 0
-527 528 0
-527 529 0
527 -528 -529 0
511 -512 0
511 -527 0
-511 512 527 0
-531 136 0
531 -136 0
-532 176 0
532 -176 0
-530 531 0
-530 532 0
530 -531 -532 0
510 -511 0
510 -530 0
-510 511 530 0
-414 415 0
-414 510 0
414 -415 -510 0
-539 184 0
539 -184 0
-540 208 0
540 -208 0
-538 539 0
-538 540 0
538 -539 -540 0
-542 189 0
542 -189 0
-543 216 0
543 -216 0
-541 542 0
-541 543 0
541 -542 -543 0
537 -538 0
537 -541 0
-537 538 541 0
-545 179 0
545 -179 0
-546 221 0
546 -221 0
-544 545 0
-544 546 0
544 -545 -546 0
536 -537 0
536 -544 0
-536 537 544 0
-548 176 0
548 -176 0
-549 211 0
549 -211 0
-547 548 0
-547 549 0
547 -548 -549 0
535 -536 0
535 -547 0
-535 536 547 0
-551 179 0
551 -179 0
-552 216 0
552 -216 0
-550 551 0
-550 552 0
550 -551 -552 0
534 -535 0
534 -550 0
-534 535 550 0
-554 168 0
554 -168 0
-555 208 0
555 -208 0
-553 554 0
-553 555 0
553 -554 -555 0
533 -534 0
533 -553 0
-533 534 553 0
-413 414 0
-413 533 0
413 -414 -533 0
-556 13 0
556 -13 0
-412 413 0
-412 556 0
412 -413 -556 0
-1 2 0
-1 412 0
1 -2 -412 0
